sets/C/cp-n24-k4.vrp
NAME : (null)
COMMENT : (null)
TYPE : CVRP
DIMENSION : 24
EDGE_WEIGHT_TYPE : EUC_2D
CAPACITY : 77
NODE_COORD_SECTION
 1  17  22
 2  17   1
 3  22  19
 4  14  23
 5  15  18
 6  18   6
 7  19   0
 8   5  19
 9   1  14
10  23   8
11   1   6
12   1   4
13   3  15
14   4   1
15  20   4
16   1   1
17  14  12
18   5  13
19  17  15
20   9  18
21  16  23
22   2  19
23  14  10
24  13  13
DEMAND_SECTION
 1   0
 2  22
 3   8
 4  18
 5   6
 6   6
 7  17
 8   3
 9  22
10   5
11  11
12  24
13   1
14  20
15   1
16  10
17   9
18   9
19  19
20   3
21   3
22   9
23  16
24  14
DEPOT_SECTION
 1
-1
EOF