sets/C/cp-n24-k4.opt
Route #1: 22 5 1 6 14 9 2
Route #2: 20 3 19 17 12 8 21 7
Route #3: 16 13 15 11 10
Route #4: 4 23 18
cost 168
